peakDumbCharging = 7400; 
Machine = anon_enum(16); 
machineSpeed = [3700,3700,3700,3700,3700,3700,3700,3700,3700,3700,3700,3700,3700,3700,3700,3700]; 
machineLoad = [3700,3700,3700,3700,3700,3700,3700,3700,3700,3700,3700,3700,3700,3700,3700,3700]; 
Car = anon_enum(10); 
demandCar = [2120,2600,3240,32000,8520,5360,14640,3720,3680,35000]; 
arrivalCar = [73,69,64,62,60,57,52,48,43,32]; 
departureCar = [74,70,67,73,64,68,58,52,46,52]; 
